11
0 335 492 202 410 304 360 329 494 435 402 
335 0 163 160 111 266 289 257 198 214 188 
492 163 0 130 381 473 441 472 296 435 177 
202 160 130 0 252 433 450 173 269 442 276 
410 111 381 252 0 180 246 137 409 241 472 
304 266 473 433 180 0 311 305 133 323 471 
360 289 441 450 246 311 0 322 481 169 436 
329 257 472 173 137 305 322 0 169 199 318 
494 198 296 269 409 133 481 169 0 142 141 
435 214 435 442 241 323 169 199 142 0 291 
402 188 177 276 472 471 436 318 141 291 0 
